nApps = 226
nRes = 9
nActs = 440
nNetworks = 6

assignmentToResources = [1,3,3,1,2,3,2,1,2,1,3,2,2,2,3,1,3,2,2,3,2,1,1,2,1,3,1,1,1,3,2,1,3,1,3,1,3,3,3,3,1,1,3,1,3,1,1,1,3,1,1,1,3,1,1,2,1,1,1,2,1,3,2,2,2,3,2,2,2,2,2,2,2,2,2,2,2,2,2,2,1,2,3,1,1,1,3,1,2,3,1,2,2,3,2,2,1,2,2,2,4,4,6,6,6,6,6,6,6,6,6,4,5,6,6,5,5,5,4,4,4,4,4,5,5,5,4,6,6,5,5,5,5,5,6,6,6,4,4,4,6,6,5,6,5,5,5,5,5,5,4,6,6,6,6,6,6,4,4,4,4,4,6,6,6,6,6,6,4,6,4,6,6,6,6,6,4,4,4,4,4,6,6,4,4,4,6,4,4,4,4,4,4,4,6,4,4,4,4,4,4,6,6,6,6,6,4,4,4,4,4,4,4,5,5,5,4,6,6,6,5,5,6,6,5,5,5,5,5,5,5,5,5,4,4,6,4,4,4,4,6,4,5,5,6,5,5,5,5,5,4,8,4,9,5,9,4,8,6,8,6,7,4,9,4,8,6,8,5,7,4,8,5,9,4,9,4,8,5,7,6,8,5,7,5,9,6,7,4,9,9,8,7,8,8,7,7,7,7,8,7,8,9,7,7,7,9,7,9,9,9,8,9,9,9,7,8,8,8,9,7,7,7,7,8,7,7,8,8,8,7,7,7,7,7,7,7,7,7,7,9,7,8,8,7,8,7,9,8,8,8,9,7,8,8,7,7,8,8,7,9,7,8,7,7,8,9,8,8,9,8,7,7,8,8,8,8,9,8,9,8,8,9,8,7,8,8,8,8,9,8,8,7,7,7,8,8,9,8,8,9,8,9,7,7,9,8,8,8,8,9,7,8,8,9,7,7,7,9,9,9,7,7,9,9,7,9,8,8,9,8,9,9,7,7,7,9,9,7,9];

processingTimes = [120,152,136,104,136,152,64,112,136,128,136,112,72,112,56,112,160,120,136,56,80,136,168,112,136,136,104,48,112,112,128,72,112,120,112,128,104,80,136,120,56,80,112,96,136,136,136,128,64,56,96,136,104,48,88,96,128,96,104,152,72,120,120,120,144,80,56,64,152,48,128,128,128,112,72,144,120,112,128,136,120,136,128,128,112,136,112,104,80,128,136,88,136,104,136,136,48,88,56,96,4,500,4,4,500,500,4,500,4,3,3,3,4,3,5,3,3,3,3,4,4,4,3,4,4,4,500,500,500,3,3,3,3,4,500,3,3,4,4,4,3,3,7,4,3,4,4,500,100,100,3,3,3,500,4,500,500,3,3,5,3,500,3,500,3,3,3,4,500,200,4,3,500,4,5,500,500,5,3,3,4,3,3,200,200,4,4,3,500,4,4,4,8,8,3,3,4,4,3,4,23,5,3,3,4,4,3,4,4,500,500,4,8,5,3,3,4,4,4,5,4,5,4,4,3,4,4,4,500,3,8,4,5,4,4,3,3,3,4,5,500,3,5,4,3,3,3,3,5,4,500,500,500,500,3,3,4,4,8,8,3,3,3,3,5,5,5,5,3,3,3,3,3,3,5,5,5,5,500,500,500,500,500,500,4,4,3,3,500,500,4,500,4,4,500,500,4,500,4,3,3,3,4,3,5,3,3,3,3,4,4,4,3,4,4,4,500,500,500,3,3,3,3,4,500,3,3,4,4,4,3,3,7,4,3,4,4,500,100,100,3,3,3,500,4,500,500,3,3,5,3,500,3,500,3,3,3,4,500,200,4,3,500,4,5,500,500,5,3,3,4,3,3,200,200,4,4,3,500,4,4,4,8,8,3,3,4,4,3,4,23,5,3,3,4,4,3,4,4,500,500,4,8,5,3,3,4,4,4,5,4,5,4,4,3,4,4,4,500,3,8,4,5,4,4,3,3,3,4,5,500,3,5,4,3,3,3,3,5,4];

periods = [20000,100000,20000,20000,100000,5000,20000,10000,100000,20000,10000,100000,10000,10000,20000,10000,10000,50000,10000,10000,100000,50000,20000,1000,20000,20000,20000,10000,10000,10000,100000,5000,10000,10000,2000,10000,20000,20000,20000,100000,10000,20000,100000,2000,20000,100000,100000,10000,1000,20000,20000,20000,10000,20000,10000,10000,20000,100000,20000,100000,1000,10000,20000,20000,10000,1000,10000,10000,100000,100000,100000,100000,100000,10000,20000,10000,100000,100000,10000,10000,10000,20000,10000,20000,1000,10000,20000,20000,1000,20000,10000,20000,2000,1000,20000,10000,20000,20000,100000,10000,20000,20000,100000,100000,100000,20000,20000,20000,20000,20000,20000,20000,100000,5000,5000,20000,20000,20000,10000,10000,10000,10000,10000,100000,100000,100000,20000,10000,10000,100000,10000,10000,10000,10000,20000,20000,20000,10000,10000,10000,10000,10000,50000,10000,100000,100000,100000,100000,1000,1000,20000,20000,20000,20000,20000,20000,20000,10000,10000,10000,10000,10000,10000,10000,10000,10000,10000,10000,10000,2000,10000,20000,20000,20000,20000,100000,10000,10000,20000,20000,20000,100000,100000,2000,2000,2000,20000,100000,100000,100000,100000,100000,10000,10000,1000,20000,20000,20000,20000,20000,20000,10000,10000,10000,10000,10000,20000,20000,20000,10000,100000,100000,20000,100000,100000,100000,1000,10000,10000,10000,20000,20000,1000,1000,10000,10000,100000,100000,100000,100000,100000,10000,10000,10000,10000,10000,20000,20000,1000,10000,20000,20000,1000,20000,1000,10000,10000,20000,100000,100000,20000,20000,10000,10000,10000,10000,10000,10000,10000,10000,20000,20000,20000,20000,50000,50000,10000,10000,10000,10000,10000,10000,10000,10000,10000,10000,20000,20000,10000,10000,10000,10000,10000,10000,2000,2000,2000,2000,20000,20000,20000,20000,100000,100000,100000,20000,20000,20000,20000,20000,20000,20000,100000,5000,5000,20000,20000,20000,10000,10000,10000,10000,10000,100000,100000,100000,20000,10000,10000,100000,10000,10000,10000,10000,20000,20000,20000,10000,10000,10000,10000,10000,50000,10000,100000,100000,100000,100000,1000,1000,20000,20000,20000,20000,20000,20000,20000,10000,10000,10000,10000,10000,10000,10000,10000,10000,10000,10000,10000,2000,10000,20000,20000,20000,20000,100000,10000,10000,20000,20000,20000,100000,100000,2000,2000,2000,20000,100000,100000,100000,100000,100000,10000,10000,1000,20000,20000,20000,20000,20000,20000,10000,10000,10000,10000,10000,20000,20000,20000,10000,100000,100000,20000,100000,100000,100000,1000,10000,10000,10000,20000,20000,1000,1000,10000,10000,100000,100000,100000,100000,100000,10000,10000,10000,10000,10000,20000,20000,1000,10000,20000,20000,1000,20000,1000,10000,10000,20000,100000,100000];

assignmentToClusters = [1,2,3,4,5,6,7,8,9,10,11,12,13,14,15,16,14,17,18,18,19,17,20,21,22,23,24,25,14,26,27,28,29,30,31,32,33,34,35,36,18,37,38,31,39,40,41,42,43,44,45,46,30,47,48,18,49,50,51,27,52,18,53,54,55,56,57,14,58,59,60,61,62,63,64,65,27,66,67,30,30,10,18,68,69,11,15,15,70,71,18,20,31,72,73,74,35,75,76,14,77,78,79,80,81,82,83,84,85,86,87,88,89,90,91,92,93,94,95,96,97,98,99,100,101,102,103,104,105,106,107,108,109,110,111,112,113,114,115,116,117,118,119,120,121,122,123,124,125,126,127,128,129,130,131,132,133,134,135,136,137,138,139,140,141,142,143,144,145,146,147,148,149,150,151,152,153,154,155,156,157,158,159,160,161,162,163,164,165,166,167,168,169,170,171,172,173,174,175,176,177,178,179,180,181,182,183,184,185,186,187,188,189,190,191,192,193,194,195,196,197,198,199,200,201,202,203,204,205,206,207,208,209,210,211,212,213,214,215,216,217,218,219,220,221,222,223,224,225,226,10,10,11,11,14,14,14,14,14,14,15,15,15,15,17,17,18,18,18,18,18,18,18,18,18,18,20,20,30,30,30,30,30,30,31,31,31,31,35,35,77,78,79,80,81,82,83,84,85,86,87,88,89,90,91,92,93,94,95,96,97,98,99,100,101,102,103,104,105,106,107,108,109,110,111,112,113,114,115,116,117,118,119,120,121,122,123,124,125,126,127,128,129,130,131,132,133,134,135,136,137,138,139,140,141,142,143,144,145,146,147,148,149,150,151,152,153,154,155,156,157,158,159,160,161,162,163,164,165,166,167,168,169,170,171,172,173,174,175,176,177,178,179,180,181,182,183,184,185,186,187,188,189,190,191,192,193,194,195,196,197,198,199,200,201,202,203,204,205,206,207,208,209,210,211,212,213,214,215,216,217,218,219,220,221,222,223,224,225,226];

precedenceAdjList = [[],[],[],[],[],[],[],[],[],[],[253],[],[],[],[],[],[255],[265],[267],[273,275],[],[],[],[],[],[],[],[],[],[],[76],[],[],[279],[285],[],[],[],[289],[],[],[],[],[287],[],[],[],[],[],[],[],[],[],[],[],[271],[],[],[],[],[],[],[],[],[],[],[],[99],[],[],[],[],[],[],[],[],[59],[],[],[281],[283],[251],[19],[],[],[],[263],[261],[],[],[269],[277],[],[],[],[],[],[],[],[257,259],[],[],[],[],[],[],[],[],[],[],[],[],[],[],[],[],[],[],[],[],[],[],[],[],[],[],[],[],[],[],[],[],[],[],[],[],[],[],[],[],[],[],[],[],[],[],[],[],[],[],[],[],[],[],[],[],[],[],[],[],[],[],[],[],[],[],[],[],[],[],[],[],[],[],[],[],[],[],[],[],[],[],[],[],[],[],[],[],[],[],[],[],[],[],[],[],[],[],[],[],[],[],[],[],[],[],[],[],[],[],[],[],[],[],[],[],[],[],[],[],[],[],[],[],[],[],[],[],[],[],[],[],[],[],[],[],[],[],[],[],[],[],[],[],[],[],[],[],[],[],[9],[250],[85],[252],[13],[254],[28],[256],[16],[258],[14],[260],[87],[262],[21],[264],[61],[266],[18],[268],[90],[270],[55],[272],[40],[274],[22],[276],[79],[278],[52],[280],[79],[282],[92],[284],[34],[286],[96],[288],[100],[101],[102],[103],[104],[105],[106],[107],[108],[109],[110],[111],[112],[113],[114],[115],[116],[117],[118],[119],[120],[121],[122],[123],[124],[125],[126],[127],[128],[129],[130],[131],[132],[133],[134],[135],[136],[137],[138],[139],[140],[141],[142],[143],[144],[145],[146],[147],[148],[149],[150],[151],[152],[153],[154],[155],[156],[157],[158],[159],[160],[161],[162],[163],[164],[165],[166],[167],[168],[169],[170],[171],[172],[173],[174],[175],[176],[177],[178],[179],[180],[181],[182],[183],[184],[185],[186],[187],[188],[189],[190],[191],[192],[193],[194],[195],[196],[197],[198],[199],[200],[201],[202],[203],[204],[205],[206],[207],[208],[209],[210],[211],[212],[213],[214],[215],[216],[217],[218],[219],[220],[221],[222],[223],[224],[225],[226],[227],[228],[229],[230],[231],[232],[233],[234],[235],[236],[237],[238],[239],[240],[241],[242],[243],[244],[245],[246],[247],[248],[249]];